Reading model...
...model read.
creating competitive generators file...
...competitive generators recorded.
Loading data...
.. real-time data read.
Compiling instance...
...instance created.
Creating Offer Mitigation (model will solve as dispatch if TRUE)...
...storage offer mitigation file created
Converting model to MPEC...
...converted
NOTE: initial MIP solve with only storage competitive to get feasible solution
Solving...

Welcome to IBM(R) ILOG(R) CPLEX(R) Interactive Optimizer 12.10.0.0
  with Simplex, Mixed Integer & Barrier Optimizers
5725-A06 5725-A29 5724-Y48 5724-Y49 5724-Y54 5724-Y55 5655-Y21
Copyright IBM Corp. 1988, 2019.  All Rights Reserved.

Type 'help' for a list of available commands.
Type 'help' followed by a command name for more
information on commands.

CPLEX> Logfile 'cplex.log' closed.
Logfile 'C:\Users\wenmi\Desktop\competitiveMPEC\logs\tmp996p3tpq.cplex.log' open.
CPLEX> New value for parallel optimization mode: -1
CPLEX> New value for mixed integer optimality gap tolerance: 0.05
CPLEX> New value for deterministic time limit in ticks: 100000
CPLEX> Problem 'C:\Users\wenmi\Desktop\competitiveMPEC\logs\tmpahkgts11.pyomo.lp' read.
Read time = 0.31 sec. (27.44 ticks)
CPLEX> Problem name         : C:\Users\wenmi\Desktop\competitiveMPEC\logs\tmpahkgts11.pyomo.lp
Objective sense      : Maximize
Variables            :  107779  [Nneg: 1,  Box: 44054,  Free: 8928,
                                 Binary: 54796]
Objective nonzeros   :   19154
Linear constraints   :  246995  [Less: 82866,  Greater: 118424,  Equal: 45705]
  Nonzeros           :  582461
  RHS nonzeros       :  136223

Variables            : Min LB: -5000.000        Max UB: 1000000.       
Objective nonzeros   : Min   : 0.01666667       Max   : 2500.000       
Linear constraints   :
  Nonzeros           : Min   : 0.01666667       Max   : 1000000.       
  RHS nonzeros       : Min   : 0.01666667       Max   : 1000000.       
CPLEX> Version identifier: 12.10.0.0 | 2019-11-26 | 843d4de2ae
CPXPARAM_Parallel                                -1
CPXPARAM_DetTimeLimit                            100000
CPXPARAM_MIP_Tolerances_MIPGap                   0.050000000000000003
Tried aggregator 3 times.
MIP Presolve eliminated 173103 rows and 34071 columns.
MIP Presolve added 7724 rows and 0 columns.
MIP Presolve modified 52094 coefficients.
Aggregator did 26035 substitutions.
Reduced MIP has 55581 rows, 47289 columns, and 151820 nonzeros.
Reduced MIP has 18748 binaries, 0 generals, 0 SOSs, and 0 indicators.
Presolve time = 0.34 sec. (341.48 ticks)
Probing fixed 755 vars, tightened 8694 bounds.
Probing time = 0.09 sec. (17.90 ticks)
Tried aggregator 2 times.
Detecting symmetries...
MIP Presolve eliminated 1704 rows and 1521 columns.
MIP Presolve modified 7162 coefficients.
Aggregator did 96 substitutions.
Reduced MIP has 53781 rows, 45672 columns, and 146548 nonzeros.
Reduced MIP has 17993 binaries, 0 generals, 0 SOSs, and 0 indicators.
Presolve time = 0.16 sec. (270.25 ticks)
Probing fixed 1 vars, tightened 115 bounds.
Probing time = 0.22 sec. (23.44 ticks)
Clique table members: 93202.
MIP emphasis: balance optimality and feasibility.
MIP search method: dynamic search.
Parallel mode: opportunistic, using up to 16 threads.
Root relaxation solution time = 0.78 sec. (2277.77 ticks)

        Nodes                                         Cuts/
   Node  Left     Objective  IInf  Best Integer    Best Bound    ItCnt     Gap

      0     0       46.9976    17                     46.9976    11558         
*     0+    0                           46.9976       46.9976             0.00%
      0     0        cutoff             46.9976       46.9976    11558    0.00%
Elapsed time = 2.03 sec. (3439.43 ticks, tree = 0.01 MB, solutions = 1)

Root node processing (before b&c):
  Real time             =    2.05 sec. (3443.43 ticks)
Parallel b&c, 16 threads:
  Real time             =    0.00 sec. (0.00 ticks)
  Sync time (average)   =    0.00 sec.
  Wait time (average)   =    0.00 sec.
                          ------------
Total (root+branch&cut) =    2.05 sec. (3443.43 ticks)

Solution pool: 1 solution saved.

MIP - Integer optimal solution:  Objective =  4.6997630705e+01
Solution time =    2.05 sec.  Iterations = 11558  Nodes = 0
Deterministic time = 3443.74 ticks  (1682.33 ticks/sec)

CPLEX> Incumbent solution written to file 'C:\Users\wenmi\Desktop\competitiveMPEC\logs\tmpr2ijzjse.cplex.sol'.
CPLEX> NOTE: no warmstart specified for MIP iteration, default behavior is true
NOTE: resolving with all competitive generators using storage-only solution to warmstart
Solving...

Welcome to IBM(R) ILOG(R) CPLEX(R) Interactive Optimizer 12.10.0.0
  with Simplex, Mixed Integer & Barrier Optimizers
5725-A06 5725-A29 5724-Y48 5724-Y49 5724-Y54 5724-Y55 5655-Y21
Copyright IBM Corp. 1988, 2019.  All Rights Reserved.

Type 'help' for a list of available commands.
Type 'help' followed by a command name for more
information on commands.

CPLEX> Logfile 'cplex.log' closed.
Logfile 'C:\Users\wenmi\Desktop\competitiveMPEC\logs\tmpax65_q7o.cplex.log' open.
CPLEX> New value for parallel optimization mode: -1
CPLEX> New value for mixed integer optimality gap tolerance: 0.05
CPLEX> New value for deterministic time limit in ticks: 100000
CPLEX> Problem 'C:\Users\wenmi\Desktop\competitiveMPEC\logs\tmp7vlgwx0j.pyomo.lp' read.
Read time = 0.31 sec. (27.48 ticks)
CPLEX> MIP start file 'C:\Users\wenmi\Desktop\competitiveMPEC\logs\tmpxc0tqrkz.cplex.mst' read.
CPLEX> Problem name         : C:\Users\wenmi\Desktop\competitiveMPEC\logs\tmp7vlgwx0j.pyomo.lp
Objective sense      : Maximize
Variables            :  109219  [Nneg: 1,  Box: 45494,  Free: 8928,
                                 Binary: 54796]
Objective nonzeros   :   20546
Linear constraints   :  246995  [Less: 82866,  Greater: 118424,  Equal: 45705]
  Nonzeros           :  582461
  RHS nonzeros       :  136223

Variables            : Min LB: -5000.000        Max UB: 1000000.       
Objective nonzeros   : Min   : 0.01666667       Max   : 2500.000       
Linear constraints   :
  Nonzeros           : Min   : 0.01666667       Max   : 1000000.       
  RHS nonzeros       : Min   : 0.01666667       Max   : 1000000.       
CPLEX> Version identifier: 12.10.0.0 | 2019-11-26 | 843d4de2ae
CPXPARAM_Parallel                                -1
CPXPARAM_DetTimeLimit                            100000
CPXPARAM_MIP_Tolerances_MIPGap                   0.050000000000000003
1 of 1 MIP starts provided solutions.
MIP start 'm1' defined initial solution with objective 46.9976.
Tried aggregator 3 times.
MIP Presolve eliminated 173103 rows and 35511 columns.
MIP Presolve added 7724 rows and 0 columns.
MIP Presolve modified 52094 coefficients.
Aggregator did 26035 substitutions.
Reduced MIP has 55581 rows, 47289 columns, and 151820 nonzeros.
Reduced MIP has 18748 binaries, 0 generals, 0 SOSs, and 0 indicators.
Presolve time = 0.34 sec. (342.24 ticks)
Probing fixed 755 vars, tightened 8694 bounds.
Probing time = 0.09 sec. (17.90 ticks)
Tried aggregator 2 times.
Detecting symmetries...
MIP Presolve eliminated 1704 rows and 1521 columns.
MIP Presolve modified 7162 coefficients.
Aggregator did 96 substitutions.
Reduced MIP has 53781 rows, 45672 columns, and 146548 nonzeros.
Reduced MIP has 17993 binaries, 0 generals, 0 SOSs, and 0 indicators.
Presolve time = 0.17 sec. (270.26 ticks)
Probing fixed 1 vars, tightened 117 bounds.
Probing time = 0.17 sec. (21.33 ticks)
Clique table members: 92977.
MIP emphasis: balance optimality and feasibility.
MIP search method: dynamic search.
Parallel mode: opportunistic, using up to 16 threads.
Root relaxation solution time = 0.88 sec. (2545.76 ticks)

        Nodes                                         Cuts/
   Node  Left     Objective  IInf  Best Integer    Best Bound    ItCnt     Gap

*     0+    0                           46.9976   1.40536e+07              --- 
      0     0     3471.6900   165       46.9976     3471.6900    12796     --- 
*     0+    0                           46.9976     3471.6900              --- 
      0     0     3313.4999   165       46.9976     Cuts: 467    13013     --- 
      0     0     3254.9562   165       46.9976     Cuts: 195    13117     --- 
      0     0     3248.5381   165       46.9976     Cuts: 107    13131     --- 
      0     0     3247.5662   165       46.9976       Cuts: 7    13139     --- 
      0     0     3241.1067   165       46.9976       Cuts: 6    13140     --- 
      0    10     2562.4912    25       46.9976     3221.3752    13191     --- 
Elapsed time = 6.02 sec. (7211.79 ticks, tree = 0.02 MB, solutions = 2)
    143    49     2137.3143    29       46.9976     3174.5084    13468     --- 
    286    60     1864.7376    23       46.9976     3174.5084    13503     --- 
    470   285     2695.5078    22       46.9976     3174.5084    14444     --- 
    631   527     1387.4383    11       46.9976     3174.5084    15265     --- 
    812   333      515.9842    25       46.9976     3174.5084    14675     --- 
   1017   714     2163.9340    17       46.9976     3174.5084    16275     --- 
   1261   726     2163.9340    18       46.9976     3174.5084    16317     --- 
   1466  1206      755.7324    19       46.9976     3174.5084    19858     --- 
   1694  1180     1001.6475    21       46.9976     3171.6580    19604     --- 
   2305  1421      420.7804    31      540.7241     3171.6580    21749  486.56%
Elapsed time = 21.47 sec. (10323.34 ticks, tree = 20.59 MB, solutions = 3)
   3227  1855     2301.7327    12      540.7241     3171.6580    24860  486.56%
   4257  3253     2307.2562    16      540.7241     3171.6580    28720  486.56%
   4899  3354     2307.2562    16      540.7241     3171.6580    28998  486.56%

Performing restart 1

Repeating presolve.
Tried aggregator 3 times.
MIP Presolve eliminated 1433 rows and 1298 columns.
MIP Presolve modified 58622 coefficients.
Aggregator did 348 substitutions.
Reduced MIP has 52000 rows, 44026 columns, and 140625 nonzeros.
Reduced MIP has 17440 binaries, 0 generals, 0 SOSs, and 0 indicators.
Presolve time = 0.17 sec. (180.25 ticks)
Tried aggregator 3 times.
MIP Presolve eliminated 774 rows and 616 columns.
MIP Presolve modified 28353 coefficients.
Aggregator did 9 substitutions.
Reduced MIP has 51217 rows, 43401 columns, and 138498 nonzeros.
Reduced MIP has 17132 binaries, 0 generals, 0 SOSs, and 0 indicators.
Presolve time = 0.11 sec. (115.11 ticks)
Tried aggregator 1 time.
MIP Presolve eliminated 2 rows and 2 columns.
MIP Presolve modified 18750 coefficients.
Reduced MIP has 51215 rows, 43399 columns, and 138492 nonzeros.
Reduced MIP has 17131 binaries, 0 generals, 0 SOSs, and 0 indicators.
Presolve time = 0.13 sec. (131.13 ticks)
Represolve time = 1.55 sec. (817.83 ticks)
   4902     0     3241.1067   291      540.7241     Cuts: 531    44207  486.56%
   4902     0     3241.1067   291      540.7241     Cuts: 123    44287  486.56%
   4902     0     3238.0027   291      540.7241     Cuts: 112    44373  486.56%
   4902     0     3235.8735   291      540.7241     Cuts: 118    44466  486.56%
   4902     0     3234.5027   291      540.7241      Cuts: 84    44603  486.56%
   4902     0     3234.3381   291      540.7241     Cuts: 101    44714  486.56%
   4902     0     3234.3381   291      540.7241     Cuts: 106    44809  486.56%
   4902     1        cutoff            540.7241     3171.6580    45002  486.56%
   4965    30     2110.1092    37      552.7763     3156.6511    45721  471.05%
   5152    50     1876.9348    47      552.7763     3150.0689    46145  469.86%
   5409   198     2220.9673    44      552.7763     3150.0689    46886  469.86%
   5789   520     2106.6163    46      552.7763     3150.0689    48269  469.86%
   6248   777     2209.1033    50      552.7763     3150.0689    48866  469.86%
   6767  1395     2206.2349    44      552.7763     3150.0689    50067  469.86%
Elapsed time = 72.31 sec. (29126.38 ticks, tree = 23.61 MB, solutions = 8)
   7220  1366     2644.8777    42      552.7763     3150.0689    49977  469.86%
   7651  1997     2704.5463    43      552.7763     3150.0689    51907  469.86%
   8008  2690     1691.2679    44      552.7763     3150.0689    53605  469.86%
   8439  2802     2289.5840    45      552.7763     3150.0689    53779  469.86%
   8880  3863     2105.5352    43      552.7763     3150.0689    55288  469.86%
   9245  2875     1509.7082    38      552.7763     3150.0689    53892  469.86%
   9632  3674     2289.5840    47      552.7763     3150.0689    54980  469.86%
   9959  3786     2042.0610    51      552.7763     3150.0689    55255  469.86%
  10396  3924     1506.8996    44      552.7763     3150.0689    55380  469.86%
  10827  5226     1524.0645    42      552.7763     3150.0689    57976  469.86%
Elapsed time = 117.70 sec. (38683.82 ticks, tree = 92.51 MB, solutions = 8)
  11265  6384      892.3612    20      552.7763     3150.0689    61792  469.86%
  11707  6432      853.8469    23      552.7763     3150.0689    61908  469.86%
  12229  5217     2110.8832    43     1052.4877     3150.0689    57889  199.30%
  12779  6761     2543.5712    39     1052.4877     3150.0689    63345  199.30%
  13445  6448     2526.4406    41     1052.4877     3150.0689    62462  199.30%
  14314  7838     1554.8492    30     1435.0326     3150.0689    68082  119.51%
  15146  7511     2638.0410    35     1435.0326     3150.0689    66843  119.51%
  16093  9024     1261.3412    22     1439.4256     3150.0689    72166  118.84%
  16981  8271     2196.1338    33     1439.4256     3150.0689    69283  118.84%
  17940  8484     1239.3831    24     1439.4256     3150.0689    69994  118.84%
Elapsed time = 163.59 sec. (48229.17 ticks, tree = 185.78 MB, solutions = 24)
  18930 12599     1538.1875    39     1439.4256     3150.0689    89275  118.84%
  19922 11479     2463.7904    39     1439.4256     3150.0689    84484  118.84%
  20878 12102     1696.9541    34     1439.4256     3150.0689    87453  118.84%
  21956 10798     2819.4991    40     1439.4256     3150.0689    82093  118.84%
  23028 12852     2102.5345    32     1439.4256     3150.0689    90190  118.84%
  24150 13015     2523.1682    43     1439.4256     3150.0689    90422  118.84%
  25293 13776     1996.0460    43     1439.4256     3150.0689    93389  118.84%
  26432 13574     2637.8260    42     1439.4256     3150.0689    92620  118.84%
  27581 15539     1845.9324    36     1439.4256     3150.0689   100880  118.84%
  28772 15019     2199.1658    38     1439.4256     3150.0689    99008  118.84%
Elapsed time = 209.64 sec. (57776.40 ticks, tree = 424.97 MB, solutions = 24)
  29947 21459     1772.3978    38     1439.4256     3101.9210   122970  115.50%
  31059 19984     2498.6387    38     1439.4256     3093.1907   117074  114.89%
  32224 24930     2456.1611    42     1439.4256     3089.9141   134560  114.66%
  33372 19601     2103.2845    30     1439.4256     3089.4995   115753  114.63%
  34579 20661     2102.7051    38     1439.4256     3087.9212   119797  114.52%
  35807 25857     1513.2838    45     1439.4256     3087.9212   137956  114.52%
  36983 27633     3005.4940    42     1439.4256     3087.9212   144058  114.52%
  38116 25678     2564.9006    37     1439.4256     3087.9212   137562  114.52%
  39224 27763     2742.8009    40     1439.4256     3087.9212   144828  114.52%
  40357 29321     3007.1358    54     1439.4256     3087.9212   150819  114.52%
Elapsed time = 255.22 sec. (67317.98 ticks, tree = 687.27 MB, solutions = 24)
  41498 28944     2454.8227    52     1439.4256     3009.5312   149243  109.08%
  42583 31682     2678.9614    37     1439.4256     3009.5312   159961  109.08%
  43593 32257     2166.5133    34     1439.4256     3009.5312   162676  109.08%
  44658 32324     2191.9967    38     1439.4256     3009.5312   163045  109.08%
  45740 35642     2564.5454    42     1439.4256     3009.5312   177699  109.08%
  46890 30472     2610.3176    53     1439.4256     3009.5312   155426  109.08%
  47946 33744     2630.8805    42     1439.4256     3009.5312   168321  109.08%
  48868 36647     1905.5148    60     1439.4256     3007.4446   182432  108.93%
  49614 34804     2577.5872    38     1439.4256     3007.2460   173510  108.92%
  50391 36785     2454.6343    46     1439.4256     3007.2460   183103  108.92%
Elapsed time = 301.09 sec. (76861.87 ticks, tree = 826.91 MB, solutions = 24)
  51276 34494     2577.5872    37     1439.4256     3007.2460   171804  108.92%
  52228 35513     2285.2066    39     1439.4256     3007.2460   176779  108.92%
  52902 40257     2127.5306    49     1439.4256     3007.2460   196086  108.92%
  53459 39679     2153.6096    41     1439.4256     3007.2460   194671  108.92%
  54035 43785     2564.7330    44     1439.4256     3007.2460   213750  108.92%
  54608 42993     2161.3489    39     1439.4256     3007.2460   209945  108.92%
  55185 44454     2564.0330    39     1439.4256     3007.2460   218383  108.92%
  55759 44519     2283.7491    43     1439.4256     3007.2460   218758  108.92%
  56351 43911     2230.8318    40     1439.4256     3007.2460   214865  108.92%
  56965 44660     2439.8214    48     1439.4256     3007.2460   219323  108.92%
Elapsed time = 370.05 sec. (86419.36 ticks, tree = 981.57 MB, solutions = 24)
  57605 44821     2564.7330    44     1439.4256     3007.2460   220141  108.92%
  58250 48609     2505.4300    49     1439.4256     3007.2460   242475  108.92%
  58890 46139     2072.7212    52     1439.4256     3007.2460   228279  108.92%
  59513 46007     2157.7692    48     1439.4256     3007.2460   227058  108.92%
  60102 47108     2290.4903    56     1439.4256     3007.2460   233729  108.92%
  60730 47053     2161.3489    39     1439.4256     3007.2460   233674  108.92%
  61321 47307     2160.8788    39     1439.4256     3007.2460   235771  108.92%
  61892 48699     2409.7993    41     1439.4256     3007.2460   243086  108.92%
  62452 48854     2159.7300    38     1439.4256     3007.2460   244448  108.92%
  63045 49625     2105.6626    48     1439.4256     3007.2460   250786  108.92%
Elapsed time = 378.34 sec. (95967.48 ticks, tree = 1074.18 MB, solutions = 24)
  63627 50490     2671.8915    42     1439.4256     3007.2460   256035  108.92%
  64245 51220     2280.7566    48     1439.4256     3007.2460   260143  108.92%
  64838 50987     1681.3149    37     1439.4256     3007.2460   258822  108.92%
  65359 51495     2609.8934    53     1439.4256     3007.2460   261916  108.92%

Cover cuts applied:  1
Flow cuts applied:  34
Mixed integer rounding cuts applied:  16
Lift and project cuts applied:  10
Gomory fractional cuts applied:  14

Root node processing (before b&c):
  Real time             =    4.88 sec. (7125.38 ticks)
Parallel b&c, 16 threads:
  Real time             =  374.11 sec. (92923.41 ticks)
  Sync time (average)   =    3.11 sec.
  Wait time (average)   =    0.07 sec.
                          ------------
Total (root+branch&cut) =  378.99 sec. (100048.79 ticks)

Solution pool: 24 solutions saved.

MIP - Deterministic time limit exceeded, integer feasible:  Objective =  1.4394255810e+03
Current MIP best bound =  3.0054940274e+03 (gap = 1566.07, 108.80%)
Solution time =  379.00 sec.  Iterations = 278122  Nodes = 65483 (54594)
Deterministic time = 100049.10 ticks  (263.98 ticks/sec)

CPLEX> Incumbent solution written to file 'C:\Users\wenmi\Desktop\competitiveMPEC\logs\tmpsfjywa4f.cplex.sol'.
CPLEX> Exporting results... 
